502
0	32	61	76	124	142	196	215	244	279
32	63	75	134	168	236	255	280	302	319
40	65	113	140	215	236	251	264	291	335
65	89	140	181	210	224	251	278	293	354
89	116	145	196	224	241	310	335	361	405
0	116	145	210	256	305	377	422	447	477
17	32	131	156	185	198	272	293	314	331
32	40	69	181	227	319	361	393	413	424
0	69	79	111	142	220	279	305	315	331
41	61	68	112	255	321	393	425	452	466
